\ Model matlab
\ LP format - for model browsing. Use MPS format to capture full model detail.
Minimize
  C0
Subject To
 R0: C1 + C3 = 0.5181341427762024
 R1: C2 + C4 = 1.15323248304721
 R2: C1 + C5 = -0.6827484715781009
 R3: C2 + C6 = 0.6024254440123157
 R4: C1 + C7 = -0.3836064418275639
 R5: C2 + C8 = -0.9423485729637594
 R6: C1 + C9 = -0.6772988256318463
 R7: C2 + C10 = -1.702537926918096
 R8: C1 + C11 = 0.773786202837671
 R9: C2 + C12 = 1.347365419412422
 R10: C1 + C13 = 2.335561498795506
 R11: C2 + C14 = -0.5357680046579888
 R12: C1 + C15 = -1.122059633170216
 R13: C2 + C16 = -1.787861719495528
 R14: C1 + C17 = -1.278431329784717
 R15: C2 + C18 = 0.6605534176022923
 R16: C1 + C19 = 0.961614273664971
 R17: C2 + C20 = 0.283152531806696
 R18: C1 + C21 = 0.6243905163208593
 R19: C2 + C22 = -0.762451077323188
 qc0: [ - C0 ^2 + C3 ^2 + C4 ^2 ] <= 0
 qc1: [ - C0 ^2 + C5 ^2 + C6 ^2 ] <= 0
 qc2: [ - C0 ^2 + C7 ^2 + C8 ^2 ] <= 0
 qc3: [ - C0 ^2 + C9 ^2 + C10 ^2 ] <= 0
 qc4: [ - C0 ^2 + C11 ^2 + C12 ^2 ] <= 0
 qc5: [ - C0 ^2 + C13 ^2 + C14 ^2 ] <= 0
 qc6: [ - C0 ^2 + C15 ^2 + C16 ^2 ] <= 0
 qc7: [ - C0 ^2 + C17 ^2 + C18 ^2 ] <= 0
 qc8: [ - C0 ^2 + C19 ^2 + C20 ^2 ] <= 0
 qc9: [ - C0 ^2 + C21 ^2 + C22 ^2 ] <= 0
Bounds
 C0 <= 1e+08
 -1e+08 <= C1 <= 1e+08
 -1e+08 <= C2 <= 1e+08
 -1e+08 <= C3 <= 1e+08
 -1e+08 <= C4 <= 1e+08
 -1e+08 <= C5 <= 1e+08
 -1e+08 <= C6 <= 1e+08
 -1e+08 <= C7 <= 1e+08
 -1e+08 <= C8 <= 1e+08
 -1e+08 <= C9 <= 1e+08
 -1e+08 <= C10 <= 1e+08
 -1e+08 <= C11 <= 1e+08
 -1e+08 <= C12 <= 1e+08
 -1e+08 <= C13 <= 1e+08
 -1e+08 <= C14 <= 1e+08
 -1e+08 <= C15 <= 1e+08
 -1e+08 <= C16 <= 1e+08
 -1e+08 <= C17 <= 1e+08
 -1e+08 <= C18 <= 1e+08
 -1e+08 <= C19 <= 1e+08
 -1e+08 <= C20 <= 1e+08
 -1e+08 <= C21 <= 1e+08
 -1e+08 <= C22 <= 1e+08
End
